(declare-const term_to_project_onto1 Real)
(declare-const term_to_project_onto Real)
(declare-const term_to_project_onto0 Real)
(declare-const tmp___0 Int)
(assert (exists
         ((|tmp___0'?1| Int) (|z'?2| Int) (|w'?3| Int) (havoc?4 Int)
            (z?5 Int) (w?6 Int) (x?7 Int) (y?8 Int))
         (and (<= (- z?5) 0) (<= (+ (- w?6) 1) 0) (<= (- x?7) 0)
                (<= (- y?8) 0) (<= (+ w?6 -100000) 0)
                (or (<= (+ havoc?4 1) 0) (<= (+ (- havoc?4) 1) 0))
                (= (+ |tmp___0'?1| (- havoc?4)) 0)
                (= (+ |z'?2| (- y?8) (- x?7)) 0)
                (= (+ |w'?3| (- y?8) (- x?7) -1) 0)
                (= term_to_project_onto1 (+ |w'?3| (- w?6)))
                (= term_to_project_onto0 (+ |z'?2| (- z?5)))
                (= term_to_project_onto (+ |tmp___0'?1| (- tmp___0))))))
(check-sat)
